TITLE lp

! Objective function
MAXIMIZE
 +592 x1 +381 x2 +273 x3 +55 x4 +48 x5 +37 x6 +23 x7

! Constraints
SUBJECT TO
 +3534 x1 +2356 x2 +1767 x3 +589 x4 +528 x5 +451 x6 +304 x7 <= 119567

END

! Integer definitions
GIN x1
GIN x2
GIN x3
GIN x4
GIN x5
GIN x6
GIN x7
